QBPP_HJ*_35_025_20_5
35 83 49
17 38 10 5 5 45 16 34 42 31 49 49 18 10 16 18 24 4 42 14 30 24 44 4 13 26 9 49 15 15 17 41 1 2 48
    0  -24    0    0    0   -4    0    0    0    0   42  -42   39  -25    0    0    0    0   -6   10    0    0    0    0    0    0    0    0    0  -27    0    0    0    0    0
  -24    0    0   50  -10   -2    0    0    0    0    0    0    0    0  -36    0    0    0    0    0  -11    0    0    0    0    0    0  -33    0    0    0    0    0    0    0
    0    0    0  -27    0  -19    0   22    0    0    0    0   32    0   49    0    0  -25  -43  -11    0    0    0    0    0   -6    0  -42    0    0    0   48    0    0    0
    0   50  -27    0    0    0  -25    0    0    0  -16    0    0    0    0    0    0    0    0    0   39    0    0    0    0    0    0    0    0    0    0    0    0    0    0
    0  -10    0    0    0    0   -5   32    1    0    0    0    0    0    0    0    0    0    0    0    0    0   -9    0    0    0  -15    0   36    0   16  -19   -9  -34    0
   -4   -2  -19    0    0    0    0   32    0    0    0  -24   33    0    0   30    0    0    0    0    0    0    0    0    0  -42    0   20    0    0    9  -17    0    0    0
    0    0    0  -25   -5    0    0    0    0    0    0   14    0  -39    0    0   -5    0   34  -16    0    0    0    0    0    0    0    0    0    0    0    0    0    0    0
    0    0   22    0   32   32    0    0    0   31    0   39   22    0    0    0    0    0    0    0    0    0    0  -34    0    0    0    0    0    0   35  -47    0    0  -33
    0    0    0    0    1    0    0    0    0    0    0    0    0    0  -22    0    0    0    0  -47    0    0    0    0    0    0    0    0    0   18    0  -17    0    0    0
    0    0    0    0    0    0    0   31    0    0    0    0    0  -26    0    0    0    0    0    0    0    0   49    0  -44    0    0    0    0    0   41    0   28    0    0
   42    0    0  -16    0    0    0    0    0    0    0   24    0    0    0    0    0    0    0  -12   10   -4    0    0    0    0    0  -33   33  -16    0  -12    0    0    0
  -42    0    0    0    0  -24   14   39    0    0   24    0    0    0    0    0   23    0    0    0    0    0    0    0    0    0    0    0    0    0    0    0    0   16  -22
   39    0   32    0    0   33    0   22    0    0    0    0    0    0    0   15    0    0   33  -17    0    0    0  -14    0    0    0    0    0    0  -14    0    0    0   46
  -25    0    0    0    0    0  -39    0    0  -26    0    0    0    0    0    0    0   49    0  -32   41   17   15    0    6    0    0   46    0  -31   16    0    0    0    0
    0  -36   49    0    0    0    0    0  -22    0    0    0    0    0    0   50    0    0   15    0  -17    0    0  -11    0    0    0  -16    0   17   42    0   19    0    0
    0    0    0    0    0   30    0    0    0    0    0    0   15    0   50    0    0    0    0    0    0    0  -40    0    0    0    0    0   -1    0    0    0   30    0    0
    0    0    0    0    0    0   -5    0    0    0    0   23    0    0    0    0    0    0    0    0    0    0    0    0    0    0    0    0    0   20    0  -17    0    0    0
    0    0  -25    0    0    0    0    0    0    0    0    0    0   49    0    0    0    0    0    0    0    0    0    0    0    0    0   14    0    0    0    0    0    0  -48
   -6    0  -43    0    0    0   34    0    0    0    0    0   33    0   15    0    0    0    0   22    0    0    0    0    0    0    0  -45    0  -32    0   32   14    0    9
   10    0  -11    0    0    0  -16    0  -47    0  -12    0  -17  -32    0    0    0    0   22    0    0   50    0   28    0    0  -29    0    9    0    0    0    0    0  -42
    0  -11    0   39    0    0    0    0    0    0   10    0    0   41  -17    0    0    0    0    0    0   25    0  -24    0    0    0    0    0    0    0   14    0    0    0
    0    0    0    0    0    0    0    0    0    0   -4    0    0   17    0    0    0    0    0   50   25    0    0   26    0    0    0    0    0    5    0    0  -21    0    0
    0    0    0    0   -9    0    0    0    0   49    0    0    0   15    0  -40    0    0    0    0    0    0    0    0    0    0    0    0    0    0    0    0    0   14    0
    0    0    0    0    0    0    0  -34    0    0    0    0  -14    0  -11    0    0    0    0   28  -24   26    0    0    0    0   32    0    0    0    0    0    0    0   30
    0    0    0    0    0    0    0    0    0  -44    0    0    0    6    0    0    0    0    0    0    0    0    0    0    0    1    0    0  -45    0  -29    0    0   40   27
    0    0   -6    0    0  -42    0    0    0    0    0    0    0    0    0    0    0    0    0    0    0    0    0    0    1    0    0    0    0    0  -21    0    0    0    0
    0    0    0    0  -15    0    0    0    0    0    0    0    0    0    0    0    0    0    0  -29    0    0    0   32    0    0    0    0  -32    0    0    0    0    0    0
    0  -33  -42    0    0   20    0    0    0    0  -33    0    0   46  -16    0    0   14  -45    0    0    0    0    0    0    0    0    0    0    3    0    0   15    0    0
    0    0    0    0   36    0    0    0    0    0   33    0    0    0    0   -1    0    0    0    9    0    0    0    0  -45    0  -32    0    0    0    0    0    0    0  -38
  -27    0    0    0    0    0    0    0   18    0  -16    0    0  -31   17    0   20    0  -32    0    0    5    0    0    0    0    0    3    0    0   42    0    0    0  -10
    0    0    0    0   16    9    0   35    0   41    0    0  -14   16   42    0    0    0    0    0    0    0    0    0  -29  -21    0    0    0   42    0    0    0  -33    0
    0    0   48    0  -19  -17    0  -47  -17    0  -12    0    0    0    0    0  -17    0   32    0   14    0    0    0    0    0    0    0    0    0    0    0    0    0    0
    0    0    0    0   -9    0    0    0    0   28    0    0    0    0   19   30    0    0   14    0    0  -21    0    0    0    0    0   15    0    0    0    0    0    0    0
    0    0    0    0  -34    0    0    0    0    0    0   16    0    0    0    0    0    0    0    0    0    0   14    0   40    0    0    0    0    0  -33    0    0    0    0
    0    0    0    0    0    0    0  -33    0    0    0  -22   46    0    0    0    0  -48    9  -42    0    0    0   30   27    0    0    0  -38  -10    0    0    0    0    0
